c Sudoku solution
p cnf 729 0
125 0
186 0
231 0
263 0
316 0
329 0
338 0
361 0
427 0
434 0
445 0
489 0
564 0
575 0
581 0
659 0
662 0
693 0
741 0
451 0
413 0
133 0
753 0
543 0
769 0
784 0
674 0
844 0
898 0
956 0
246 0
149 0
466 0
492 0
478 0
596 0
687 0
557 0
648 0
968 0
865 0
852 0
947 0
342 0
167 0
217 0
158 0
288 0
982 0
385 0
373 0
397 0
255 0
354 0
883 0
923 0
914 0
112 0
224 0
171 0
194 0
979 0
991 0
795 0
718 0
935 0
615 0
621 0
636 0
811 0
826 0
722 0
737 0
839 0
776 0
877 0
519 0
528 0
532 0
272 0
299 0
